unknown system                          
   1.00000000000000     
    11.0071999999999992    0.0000000000000000    0.0000000000000000
    -0.0009650000000000    9.5321999999999996    0.0000000000000000
     0.0000000000000000    0.0000000000000000   19.9864999999999995
   S    Mo   Ni
    24    12     7
Direct
  0.0863299999999967  0.1635599999999968  0.5716500300000007
  0.3363299999999967  0.3302300000000002  0.5716500300000007
  0.0863399999999999  0.1635400099999984  0.4124299899999997
  0.3363400100000007  0.3302100000000010  0.4124299899999997
  0.5863299999999967  0.1635599999999968  0.5716500300000007
  0.8363299999999967  0.3302300000000002  0.5716500300000007
  0.5863400100000007  0.1635400099999984  0.4124299899999997
  0.8363400100000007  0.3302100000000010  0.4124299899999997
  0.0863299999999967  0.4968999900000028  0.5716500300000007
  0.3363299999999967  0.6635599700000014  0.5716500300000007
  0.0863399999999999  0.4968799999999973  0.4124299899999997
  0.3363400100000007  0.6635400099999984  0.4124299899999997
  0.5863299999999967  0.4968999900000028  0.5716500300000007
  0.8363299999999967  0.6635599700000014  0.5716500300000007
  0.5863400100000007  0.4968799999999973  0.4124299899999997
  0.8363400100000007  0.6635400099999984  0.4124299899999997
  0.0863299999999967  0.8302300000000002  0.5716500300000007
  0.3363299999999967  0.9969000199999982  0.5716500300000007
  0.0863399999999999  0.8302099699999985  0.4124299899999997
  0.3363400100000007  0.9968799999999973  0.4124299899999997
  0.5863299999999967  0.8302300000000002  0.5716500300000007
  0.8363299999999967  0.9969000199999982  0.5716500300000007
  0.5863400100000007  0.8302099699999985  0.4124299899999997
  0.8363400100000007  0.9968799999999973  0.4124299899999997
  0.1696699999999964  0.3302200099999979  0.4897199899999976
  0.4196699900000027  0.1635500000000008  0.4897199899999976
  0.6696699900000027  0.3302200099999979  0.4897199899999976
  0.9196699900000027  0.1635500000000008  0.4897199899999976
  0.1696699999999964  0.6635500200000024  0.4897199899999976
  0.4196699900000027  0.4968799999999973  0.4897199899999976
  0.6696699900000027  0.6635500200000024  0.4897199899999976
  0.9196699900000027  0.4968799999999973  0.4897199899999976
  0.1696699999999964  0.9968799999999973  0.4897199899999976
  0.4196699900000027  0.8302199800000025  0.4897199899999976
  0.6696699900000027  0.9968799999999973  0.4897199899999976
  0.9196699900000027  0.8302199800000025  0.4897199899999976
  0.4196600000000004  0.1635700000000000  0.6222199799999970
  0.6696599699999979  0.3302300000000002  0.6222199799999970
  0.9196599699999979  0.1635700000000000  0.6222199799999970
  0.4196600000000004  0.4968999900000028  0.6222199799999970
  0.6696599699999979  0.6635699899999992  0.6222199799999970
  0.9196599699999979  0.4968999900000028  0.6222199799999970
  0.6696599699999979  0.9969000199999982  0.6222199799999970
 
  0.00000000E+00  0.00000000E+00  0.00000000E+00
  0.00000000E+00  0.00000000E+00  0.00000000E+00
  0.00000000E+00  0.00000000E+00  0.00000000E+00
  0.00000000E+00  0.00000000E+00  0.00000000E+00
  0.00000000E+00  0.00000000E+00  0.00000000E+00
  0.00000000E+00  0.00000000E+00  0.00000000E+00
  0.00000000E+00  0.00000000E+00  0.00000000E+00
  0.00000000E+00  0.00000000E+00  0.00000000E+00
  0.00000000E+00  0.00000000E+00  0.00000000E+00
  0.00000000E+00  0.00000000E+00  0.00000000E+00
  0.00000000E+00  0.00000000E+00  0.00000000E+00
  0.00000000E+00  0.00000000E+00  0.00000000E+00
  0.00000000E+00  0.00000000E+00  0.00000000E+00
  0.00000000E+00  0.00000000E+00  0.00000000E+00
  0.00000000E+00  0.00000000E+00  0.00000000E+00
  0.00000000E+00  0.00000000E+00  0.00000000E+00
  0.00000000E+00  0.00000000E+00  0.00000000E+00
  0.00000000E+00  0.00000000E+00  0.00000000E+00
  0.00000000E+00  0.00000000E+00  0.00000000E+00
  0.00000000E+00  0.00000000E+00  0.00000000E+00
  0.00000000E+00  0.00000000E+00  0.00000000E+00
  0.00000000E+00  0.00000000E+00  0.00000000E+00
  0.00000000E+00  0.00000000E+00  0.00000000E+00
  0.00000000E+00  0.00000000E+00  0.00000000E+00
  0.00000000E+00  0.00000000E+00  0.00000000E+00
  0.00000000E+00  0.00000000E+00  0.00000000E+00
  0.00000000E+00  0.00000000E+00  0.00000000E+00
  0.00000000E+00  0.00000000E+00  0.00000000E+00
  0.00000000E+00  0.00000000E+00  0.00000000E+00
  0.00000000E+00  0.00000000E+00  0.00000000E+00
  0.00000000E+00  0.00000000E+00  0.00000000E+00
  0.00000000E+00  0.00000000E+00  0.00000000E+00
  0.00000000E+00  0.00000000E+00  0.00000000E+00
  0.00000000E+00  0.00000000E+00  0.00000000E+00
  0.00000000E+00  0.00000000E+00  0.00000000E+00
  0.00000000E+00  0.00000000E+00  0.00000000E+00
  0.00000000E+00  0.00000000E+00  0.00000000E+00
  0.00000000E+00  0.00000000E+00  0.00000000E+00
  0.00000000E+00  0.00000000E+00  0.00000000E+00
  0.00000000E+00  0.00000000E+00  0.00000000E+00
  0.00000000E+00  0.00000000E+00  0.00000000E+00
  0.00000000E+00  0.00000000E+00  0.00000000E+00
  0.00000000E+00  0.00000000E+00  0.00000000E+00
