Gamma-point only
0
Gamma-centered
1 1 1
0 0 0