unknown system                          
   1.00000000000000     
    11.0071999999999992    0.0000000000000000    0.0000000000000000
    -0.0009650000000000    9.5321999999999996    0.0000000000000000
     0.0000000000000000    0.0000000000000000   19.9864999999999995
   S    Mo   Ni
    24    12     7
Direct
  0.0872171999999978  0.1601653000000027  0.5716488799999979
  0.3329881299999968  0.3308594000000014  0.5742206400000001
  0.0845995500000001  0.1644158300000029  0.4122095900000033
  0.3347445699999980  0.3325157499999989  0.4117796100000035
  0.5857421799999969  0.1652117000000004  0.5714482500000031
  0.8368338000000008  0.3323066600000004  0.5726648999999995
  0.5854428000000027  0.1634279100000029  0.4120507700000005
  0.8337300099999965  0.3329156499999968  0.4130900400000002
  0.0847273099999981  0.4965572199999997  0.5722364800000008
  0.3336992199999997  0.6610497100000003  0.5727431700000025
  0.0862242099999975  0.4977552300000028  0.4124795899999967
  0.3370282300000014  0.6604095100000009  0.4133203000000023
  0.5855072600000000  0.4990415600000020  0.5706135499999974
  0.8339986399999972  0.6627986900000025  0.5739705599999994
  0.5836437299999986  0.4999332699999997  0.4139603699999981
  0.8397174199999995  0.6653244500000000  0.4125332099999994
  0.0880190999999968  0.8281807700000030  0.5697182400000003
  0.3377489800000006  0.9980748999999989  0.5704731300000034
  0.0839665199999970  0.8237655799999999  0.4124952900000025
  0.3391636300000016  0.9996363799999983  0.4129818899999975
  0.5853852199999992  0.8300696100000025  0.5710639699999973
  0.8378571200000025  0.0007821299999975  0.5710402300000013
  0.5835318800000024  0.8273048100000011  0.4130446599999971
  0.8386733299999989  0.9944914800000006  0.4137069599999990
  0.1739042700000013  0.3291388600000005  0.4892713999999998
  0.4216092899999992  0.1670575300000010  0.4901317300000017
  0.6692713200000000  0.3293115999999969  0.4906522400000028
  0.9223097499999966  0.1620444799999987  0.4907354500000025
  0.1725074599999985  0.6641554999999997  0.4896479499999984
  0.4204266699999977  0.4952022499999984  0.4896507200000002
  0.6675503900000024  0.6628963599999977  0.4901708000000013
  0.9178890800000019  0.4977238199999974  0.4905485299999981
  0.1707632199999978  0.9942575199999979  0.4889139100000008
  0.4181118099999992  0.8309262499999974  0.4895857500000034
  0.6670635099999984  0.9964197199999987  0.4904892300000014
  0.9199999900000009  0.8331494700000022  0.4876270399999996
  0.4199743699999985  0.1622876099999999  0.6196660600000001
  0.6734206000000000  0.3280533699999992  0.6227647899999980
  0.9169273199999992  0.1635066199999997  0.6218703099999985
  0.4161403900000025  0.4972310300000018  0.6212386500000022
  0.6696639899999965  0.6621232099999972  0.6226874299999992
  0.9199983199999977  0.4992868799999997  0.6220933299999984
  0.6691960799999990  0.9987326700000025  0.6203662100000003
 
  0.00000000E+00  0.00000000E+00  0.00000000E+00
  0.00000000E+00  0.00000000E+00  0.00000000E+00
  0.00000000E+00  0.00000000E+00  0.00000000E+00
  0.00000000E+00  0.00000000E+00  0.00000000E+00
  0.00000000E+00  0.00000000E+00  0.00000000E+00
  0.00000000E+00  0.00000000E+00  0.00000000E+00
  0.00000000E+00  0.00000000E+00  0.00000000E+00
  0.00000000E+00  0.00000000E+00  0.00000000E+00
  0.00000000E+00  0.00000000E+00  0.00000000E+00
  0.00000000E+00  0.00000000E+00  0.00000000E+00
  0.00000000E+00  0.00000000E+00  0.00000000E+00
  0.00000000E+00  0.00000000E+00  0.00000000E+00
  0.00000000E+00  0.00000000E+00  0.00000000E+00
  0.00000000E+00  0.00000000E+00  0.00000000E+00
  0.00000000E+00  0.00000000E+00  0.00000000E+00
  0.00000000E+00  0.00000000E+00  0.00000000E+00
  0.00000000E+00  0.00000000E+00  0.00000000E+00
  0.00000000E+00  0.00000000E+00  0.00000000E+00
  0.00000000E+00  0.00000000E+00  0.00000000E+00
  0.00000000E+00  0.00000000E+00  0.00000000E+00
  0.00000000E+00  0.00000000E+00  0.00000000E+00
  0.00000000E+00  0.00000000E+00  0.00000000E+00
  0.00000000E+00  0.00000000E+00  0.00000000E+00
  0.00000000E+00  0.00000000E+00  0.00000000E+00
  0.00000000E+00  0.00000000E+00  0.00000000E+00
  0.00000000E+00  0.00000000E+00  0.00000000E+00
  0.00000000E+00  0.00000000E+00  0.00000000E+00
  0.00000000E+00  0.00000000E+00  0.00000000E+00
  0.00000000E+00  0.00000000E+00  0.00000000E+00
  0.00000000E+00  0.00000000E+00  0.00000000E+00
  0.00000000E+00  0.00000000E+00  0.00000000E+00
  0.00000000E+00  0.00000000E+00  0.00000000E+00
  0.00000000E+00  0.00000000E+00  0.00000000E+00
  0.00000000E+00  0.00000000E+00  0.00000000E+00
  0.00000000E+00  0.00000000E+00  0.00000000E+00
  0.00000000E+00  0.00000000E+00  0.00000000E+00
  0.00000000E+00  0.00000000E+00  0.00000000E+00
  0.00000000E+00  0.00000000E+00  0.00000000E+00
  0.00000000E+00  0.00000000E+00  0.00000000E+00
  0.00000000E+00  0.00000000E+00  0.00000000E+00
  0.00000000E+00  0.00000000E+00  0.00000000E+00
  0.00000000E+00  0.00000000E+00  0.00000000E+00
  0.00000000E+00  0.00000000E+00  0.00000000E+00
