unknown system                          
           1
    11.007200    0.000000    0.000000
    -0.000965    9.532200    0.000000
     0.000000    0.000000   19.986500
   S    Mo   Ni
  24  12   7
Direct
   0.08721720  0.16016530  0.57164888
   0.33298813  0.33085940  0.57422064
   0.08459955  0.16441583  0.41220959
   0.33474457  0.33251575  0.41177961
   0.58574218  0.16521170  0.57144825
   0.83683380  0.33230666  0.57266490
   0.58544280  0.16342791  0.41205077
   0.83373001  0.33291565  0.41309004
   0.08472731  0.49655722  0.57223648
   0.33369922  0.66104971  0.57274317
   0.08622421  0.49775523  0.41247959
   0.33702823  0.66040951  0.41332030
   0.58550726  0.49904156  0.57061355
   0.83399864  0.66279869  0.57397056
   0.58364373  0.49993327  0.41396037
   0.83971742  0.66532445  0.41253321
   0.08801910  0.82818077  0.56971824
   0.33774898  0.99807490  0.57047313
   0.08396652  0.82376558  0.41249529
   0.33916363  0.99963638  0.41298189
   0.58538522  0.83006961  0.57106397
   0.83785712  0.00078213  0.57104023
   0.58353188  0.82730481  0.41304466
   0.83867333  0.99449148  0.41370696
   0.17390427  0.32913886  0.48927140
   0.42160929  0.16705753  0.49013173
   0.66927132  0.32931160  0.49065224
   0.92230975  0.16204448  0.49073545
   0.17250746  0.66415550  0.48964795
   0.42042667  0.49520225  0.48965072
   0.66755039  0.66289636  0.49017080
   0.91788908  0.49772382  0.49054853
   0.17076322  0.99425752  0.48891391
   0.41811181  0.83092625  0.48958575
   0.66706351  0.99641972  0.49048923
   0.91999999  0.83314947  0.48762704
   0.41997437  0.16228761  0.61966606
   0.67342060  0.32805337  0.62276479
   0.91692732  0.16350662  0.62187031
   0.41614039  0.49723103  0.62123865
   0.66966399  0.66212321  0.62268743
   0.91999832  0.49928688  0.62209333
   0.66919608  0.99873267  0.62036621
