unknown system                          
   1.00000000000000     
    11.0071999999999992    0.0000000000000000    0.0000000000000000
    -0.0009650000000000    9.5321999999999996    0.0000000000000000
     0.0000000000000000    0.0000000000000000   19.9864999999999995
   S    Mo   Ni
    24    12     7
Direct
  0.0866335600000028  0.1618468899999996  0.5717012599999975
  0.3347253900000027  0.3305609000000018  0.5729584400000007
  0.0854036100000002  0.1640020399999997  0.4123343099999985
  0.3354647600000007  0.3313926800000004  0.4121231700000010
  0.5859829899999980  0.1644125199999991  0.5715349800000027
  0.8364885499999986  0.3313045399999979  0.5721563099999969
  0.5858496199999976  0.1634793200000004  0.4122370300000000
  0.8349780699999982  0.3316096499999972  0.4127548599999997
  0.0853571199999976  0.4967283599999988  0.5720159199999983
  0.3350135700000010  0.6621027899999987  0.5722577399999977
  0.0862592300000031  0.4973373500000022  0.4124557700000011
  0.3366540900000032  0.6619453599999972  0.4129152499999975
  0.5858938100000017  0.4980319800000004  0.5710881099999980
  0.8350161999999983  0.6629553300000026  0.5728580999999977
  0.5849298700000034  0.4984689799999984  0.4132263699999967
  0.8380882900000017  0.6644663900000012  0.4124843000000027
  0.0871747400000018  0.8291844700000013  0.5707923499999978
  0.3370904200000027  0.9976580900000016  0.5711070899999982
  0.0850730900000016  0.8269168200000010  0.4125127100000014
  0.3377509000000032  0.9982585500000027  0.4127382599999976
  0.5859431100000023  0.8301626100000021  0.5713398099999978
  0.8370272000000014  0.9990792400000004  0.5713538600000021
  0.5848935799999992  0.8287216700000002  0.4127523800000006
  0.8375554799999989  0.9956003200000012  0.4131004099999984
  0.1718550800000003  0.3296760799999987  0.4894564499999987
  0.4206785599999989  0.1653210500000029  0.4899314999999973
  0.6694929499999986  0.3297531600000028  0.4902017499999971
  0.9210102400000011  0.1627664100000032  0.4902354399999993
  0.1711346299999974  0.6638748900000024  0.4896365500000002
  0.4200908700000028  0.4960208600000016  0.4896730800000029
  0.6685985499999987  0.6632002699999973  0.4899510999999990
  0.9187655799999987  0.4972948599999967  0.4901345899999967
  0.1702411999999995  0.9955580800000021  0.4892768799999985
  0.4188970200000028  0.8305873600000027  0.4896150000000006
  0.6683586400000010  0.9966527899999988  0.4901215399999970
  0.9198270999999991  0.8317254600000012  0.4886100399999975
  0.4198016300000020  0.1628934800000010  0.6209362900000031
  0.6715653400000008  0.3291242100000034  0.6224798200000023
  0.9183306500000015  0.1634990100000024  0.6220534200000003
  0.4178635800000023  0.4970954200000008  0.6217342500000029
  0.6696897200000009  0.6628581000000011  0.6224548400000032
  0.9198855300000019  0.4981281700000011  0.6221620700000017
  0.6694369100000017  0.9978000899999984  0.6212883099999971
 
  0.00000000E+00  0.00000000E+00  0.00000000E+00
  0.00000000E+00  0.00000000E+00  0.00000000E+00
  0.00000000E+00  0.00000000E+00  0.00000000E+00
  0.00000000E+00  0.00000000E+00  0.00000000E+00
  0.00000000E+00  0.00000000E+00  0.00000000E+00
  0.00000000E+00  0.00000000E+00  0.00000000E+00
  0.00000000E+00  0.00000000E+00  0.00000000E+00
  0.00000000E+00  0.00000000E+00  0.00000000E+00
  0.00000000E+00  0.00000000E+00  0.00000000E+00
  0.00000000E+00  0.00000000E+00  0.00000000E+00
  0.00000000E+00  0.00000000E+00  0.00000000E+00
  0.00000000E+00  0.00000000E+00  0.00000000E+00
  0.00000000E+00  0.00000000E+00  0.00000000E+00
  0.00000000E+00  0.00000000E+00  0.00000000E+00
  0.00000000E+00  0.00000000E+00  0.00000000E+00
  0.00000000E+00  0.00000000E+00  0.00000000E+00
  0.00000000E+00  0.00000000E+00  0.00000000E+00
  0.00000000E+00  0.00000000E+00  0.00000000E+00
  0.00000000E+00  0.00000000E+00  0.00000000E+00
  0.00000000E+00  0.00000000E+00  0.00000000E+00
  0.00000000E+00  0.00000000E+00  0.00000000E+00
  0.00000000E+00  0.00000000E+00  0.00000000E+00
  0.00000000E+00  0.00000000E+00  0.00000000E+00
  0.00000000E+00  0.00000000E+00  0.00000000E+00
  0.00000000E+00  0.00000000E+00  0.00000000E+00
  0.00000000E+00  0.00000000E+00  0.00000000E+00
  0.00000000E+00  0.00000000E+00  0.00000000E+00
  0.00000000E+00  0.00000000E+00  0.00000000E+00
  0.00000000E+00  0.00000000E+00  0.00000000E+00
  0.00000000E+00  0.00000000E+00  0.00000000E+00
  0.00000000E+00  0.00000000E+00  0.00000000E+00
  0.00000000E+00  0.00000000E+00  0.00000000E+00
  0.00000000E+00  0.00000000E+00  0.00000000E+00
  0.00000000E+00  0.00000000E+00  0.00000000E+00
  0.00000000E+00  0.00000000E+00  0.00000000E+00
  0.00000000E+00  0.00000000E+00  0.00000000E+00
  0.00000000E+00  0.00000000E+00  0.00000000E+00
  0.00000000E+00  0.00000000E+00  0.00000000E+00
  0.00000000E+00  0.00000000E+00  0.00000000E+00
  0.00000000E+00  0.00000000E+00  0.00000000E+00
  0.00000000E+00  0.00000000E+00  0.00000000E+00
  0.00000000E+00  0.00000000E+00  0.00000000E+00
  0.00000000E+00  0.00000000E+00  0.00000000E+00
