boundarysmall1layer
1.0
       11.0072002411         0.0000000000         0.0000000000
       -0.0009646598         9.5321998108         0.0000000000
        0.0000000000         0.0000000000        19.9864997864
    S   Mo   Ni
   24   12    7
Direct
     0.086329997         0.163560003         0.571650028
     0.336329997         0.330229998         0.571650028
     0.086340003         0.163540006         0.412429988
     0.336340010         0.330210000         0.412429988
     0.586329997         0.163560003         0.571650028
     0.836329997         0.330229998         0.571650028
     0.586340010         0.163540006         0.412429988
     0.836340010         0.330210000         0.412429988
     0.086329997         0.496899992         0.571650028
     0.336329997         0.663559973         0.571650028
     0.086340003         0.496879995         0.412429988
     0.336340010         0.663540006         0.412429988
     0.586329997         0.496899992         0.571650028
     0.836329997         0.663559973         0.571650028
     0.586340010         0.496879995         0.412429988
     0.836340010         0.663540006         0.412429988
     0.086329997         0.830229998         0.571650028
     0.336329997         0.996900022         0.571650028
     0.086340003         0.830209970         0.412429988
     0.336340010         0.996879995         0.412429988
     0.586329997         0.830229998         0.571650028
     0.836329997         0.996900022         0.571650028
     0.586340010         0.830209970         0.412429988
     0.836340010         0.996879995         0.412429988
     0.169670001         0.330220014         0.489719987
     0.419669986         0.163550004         0.489719987
     0.669669986         0.330220014         0.489719987
     0.919669986         0.163550004         0.489719987
     0.169670001         0.663550019         0.489719987
     0.419669986         0.496879995         0.489719987
     0.669669986         0.663550019         0.489719987
     0.919669986         0.496879995         0.489719987
     0.169670001         0.996879995         0.489719987
     0.419669986         0.830219984         0.489719987
     0.669669986         0.996879995         0.489719987
     0.919669986         0.830219984         0.489719987
     0.419660002         0.163570002         0.622219980
     0.669659972         0.330229998         0.622219980
     0.919659972         0.163570002         0.622219980
     0.419660002         0.496899992         0.622219980
     0.669659972         0.663569987         0.622219980
     0.919659972         0.496899992         0.622219980
     0.669659972         0.996900022         0.622219980
